(declare-rel fail ())
(declare-rel inv2 (Int Int Int Int Int Int))
(declare-var A Int)
(declare-var B Int)
(declare-var C Int)
(declare-var D Int)
(declare-var E Int)
(declare-var F Int)
(declare-var G Int)
(declare-var H Int)
(rule (=> (and (= G 0) (= H 0) (= C (* C A)) (= 1 A)) (inv2 G D H C A A)))
(rule (let ((a!1 (= F (ite (= D (div G 1000)) (+ H A) H))))
  (=> (and (inv2 G D H C A A) (= E (+ A G)) a!1) (inv2 E D F C A A))))
(rule (let ((a!1 (and (inv2 G D H C A A) (> G (* C (+ A D))) (>= D 0) (not (= H C)))))
  (=> a!1 fail)))
(query fail)

